NAME : XML100_2272_19
DIMENSION : 101
NB_CLUSTERS : 4
CLUSTERING_ALG : KMedoids
CLUSTERING_PARAMS : k(3)
CLUSTERS
1 0
2 7 8 9 10 13 19 21 25 27 32 34 37 38 39 41 44 45 46 47 48 49 53 54 55 58 60 64 66 67 68 69 76 86 90 92 93 95 98 100
3 1 3 4 5 11 12 14 16 17 18 20 23 24 26 29 31 42 43 50 56 59 61 63 71 72 73 74 75 78 79 80 82 83 88 91 96
4 2 6 15 22 28 30 33 35 36 40 51 52 57 62 65 70 77 81 84 85 87 89 94 97 99
EOF